150 10
3
7 29 60 82 73 46 86 84 97 47 88 73 76 87 45 36 87 39 37 6 43 58 1 83 29 48 55 45 8 34 29 0 79 19 4 71 1 8 26 40 89 32 70 96 7 38 81 29 3 74 50 91 16 49 42 70 8 31 25 34 54 97 96 70 5 63 94 24 46 20 22 0 69 22 27 25 64 45 38 57 52 52 32 69 79 5 33 64 53 53 53 12 80 96 33 51 55 80 54 12 85 10 81 78 71 84 29 12 63 7 70 82 63 64 44 69 75 88 34 14 59 88 33 24 3 41 30 22 53 96 91 91 82 97 36 6 38 98 31 62 47 62 34 71 42 20 90 50 22 2
946 792 944 619 747 1273 1049 730 571 1160
0 0 51 0 0 0 0 0 0 0 3 0 0 80 0 0 0 71 0 0 0 25 0 0 58 0 0 0 0 22 0 0 0 0 0 0 0 0 0 0 0 0 38 0 0 98 0 43 0 0 0 0 0 0 0 0 0 0 94 0 0 0 0 64 0 0 0 0 0 12 0 0 0 0 70 0 36 0 0 0 0 0 0 0 0 0 0 0 0 0 0 36 0 0 0 0 35 0 0 0 0 0 0 0 0 27 0 0 0 0 0 41 36 0 0 97 38 0 0 89 0 0 0 0 0 0 0 0 21 0 16 0 37 0 0 6 96 0 87 0 0 0 0 0 0 0 0 0 0 36
0 0 28 0 0 0 0 0 0 0 0 0 0 0 30 0 0 0 0 0 0 0 0 0 0 0 0 0 0 0 0 0 0 0 0 0 0 0 0 81 0 0 0 19 0 25 77 0 0 0 0 0 0 0 0 0 0 0 0 96 0 0 74 0 0 0 0 0 16 0 0 0 0 0 0 44 0 0 0 0 0 77 0 0 0 0 0 34 0 0 82 38 0 0 0 0 0 0 0 0 7 0 0 78 0 0 51 0 0 0 0 9 0 0 0 0 97 0 0 80 0 0 0 0 0 0 0 0 0 0 0 32 46 0 0 0 0 0 0 28 0 29 0 0 0 0 0 0 0 0
0 0 0 0 0 0 0 0 0 0 0 0 0 0 0 76 0 0 93 0 0 0 31 0 0 83 0 0 0 0 0 0 0 0 0 0 0 0 0 0 0 0 0 0 0 0 0 0 0 0 0 0 0 82 40 0 16 0 0 0 0 0 0 0 36 0 0 0 0 0 0 34 94 0 0 0 0 0 0 11 0 0 0 68 0 0 0 0 0 0 0 0 0 0 0 0 0 0 0 0 96 0 0 0 0 25 0 1 0 0 0 0 0 0 0 0 0 0 0 0 99 31 51 0 0 0 0 0 0 0 0 37 0 0 0 0 96 96 0 0 0 0 0 0 62 0 0 0 0 88
0 0 0 0 0 0 65 0 0 0 0 0 0 0 0 0 0 0 96 0 0 0 0 0 96 49 46 0 0 0 0 50 0 0 0 0 0 0 0 0 0 37 0 0 0 0 0 0 0 0 0 39 0 0 0 0 0 0 0 0 0 0 0 16 0 0 0 0 0 0 0 0 0 0 0 72 0 0 0 0 0 0 0 0 77 0 0 0 36 0 0 0 0 99 0 0 0 1 0 0 0 0 0 0 0 0 0 0 0 0 0 0 0 0 0 0 0 0 0 19 0 0 0 0 0 0 0 0 0 0 18 0 0 0 0 0 0 0 0 37 0 0 0 0 0 0 0 0 0 0
0 0 69 0 97 0 0 0 0 0 0 0 0 0 18 0 0 0 0 0 0 0 0 0 0 0 0 0 0 0 0 0 54 0 0 0 0 0 8 0 0 0 0 0 8 0 0 0 0 0 0 0 0 0 0 0 51 0 0 0 0 0 0 0 0 0 0 0 0 0 0 72 0 0 0 0 0 0 51 0 0 0 0 0 0 0 0 0 57 0 0 43 0 0 0 0 59 66 0 0 0 0 0 31 0 0 0 0 0 0 0 0 0 0 0 0 76 0 0 0 0 59 0 0 0 66 0 0 0 0 0 0 37 0 0 90 0 0 0 0 0 66 0 0 0 0 0 0 0 0
0 81 46 0 0 86 0 0 0 0 0 0 0 0 98 55 0 0 0 0 0 0 0 83 0 0 0 0 0 0 0 0 0 0 0 0 0 0 0 0 43 0 0 0 0 0 58 88 51 0 10 31 0 0 30 0 0 0 0 74 0 65 0 0 0 0 0 0 0 59 0 53 0 0 0 0 0 0 0 0 0 0 0 0 0 0 42 0 0 0 85 0 0 0 0 0 0 0 0 0 0 0 0 0 0 0 0 0 0 69 0 0 0 0 0 0 0 60 0 0 0 0 0 68 0 60 0 9 0 78 63 0 0 0 28 0 0 0 0 0 79 0 31 0 0 38 0 0 74 70
0 0 0 0 0 0 0 0 41 95 0 0 0 0 0 0 70 61 0 96 27 0 0 0 0 0 65 0 0 0 0 59 0 0 0 0 0 0 0 0 0 36 0 0 0 26 0 0 0 0 0 0 0 0 0 0 0 0 94 0 13 0 42 0 0 24 47 0 0 91 13 0 0 0 0 0 0 0 0 0 0 0 0 0 0 0 0 0 0 71 0 0 0 0 0 0 0 0 0 0 0 0 0 0 99 61 0 0 0 27 0 0 0 0 0 0 0 0 0 0 0 0 0 19 0 0 0 0 0 0 67 0 95 0 22 56 10 0 0 0 0 0 0 0 0 0 0 0 94 0
0 0 0 0 0 0 0 98 0 0 0 0 0 0 0 0 0 0 0 0 0 0 0 0 0 0 0 0 0 0 0 0 97 0 0 11 0 0 0 0 0 0 0 0 0 0 0 56 0 38 0 0 0 0 0 0 0 0 0 0 0 5 20 0 0 54 0 0 58 0 0 0 0 0 0 0 0 0 0 0 0 0 0 0 53 0 0 0 0 0 66 0 0 0 0 0 0 0 0 0 0 0 0 0 0 0 2 96 0 0 0 0 0 55 0 0 0 0 79 0 0 46 0 0 0 0 0 98 0 0 0 0 14 56 0 0 0 0 0 0 0 62 0 0 0 0 0 0 0 0
0 0 0 0 0 0 0 0 0 0 0 0 0 0 0 0 0 0 0 0 0 0 0 0 0 0 0 88 0 0 0 0 0 0 0 0 0 0 0 2 0 0 0 0 0 30 52 0 0 0 59 0 0 0 0 0 0 0 0 0 0 0 0 0 38 0 44 0 0 0 0 0 93 0 0 0 0 0 94 0 0 0 0 0 0 0 0 12 0 0 0 0 67 0 0 0 0 0 0 0 0 0 0 0 0 0 0 0 1 0 0 0 0 0 0 0 0 0 0 0 0 0 0 0 0 31 0 14 93 0 0 0 0 0 0 0 0 0 0 0 0 0 0 0 7 0 0 67 0 0
0 0 0 0 0 0 0 58 0 0 78 0 62 0 47 0 0 0 0 93 51 18 78 0 0 0 93 79 0 0 0 86 0 0 0 0 29 0 0 0 0 0 0 0 0 0 50 0 50 0 0 0 0 0 0 0 79 0 0 0 66 0 0 0 0 0 0 0 17 0 0 0 0 52 23 0 0 0 0 0 0 0 50 0 68 0 15 0 64 0 0 0 0 0 24 0 0 0 0 88 0 73 0 0 76 0 0 0 0 30 0 0 0 0 0 0 0 0 0 0 0 0 0 37 0 0 0 0 0 3 0 0 0 0 46 0 0 0 0 0 0 0 0 0 0 0 0 0 0 0
0 0 46 0 0 0 0 0 0 0 0 0 0 17 0 0 0 22 0 0 0 22 0 0 13 0 0 0 0 18 0 0 0 0 0 0 0 0 0 0 0 0 36 0 0 21 0 7 0 0 0 0 0 0 0 0 0 0 3 0 0 0 0 23 0 0 0 0 0 1 0 0 0 0 7 0 30 0 0 0 0 0 0 0 0 0 0 0 0 0 0 26 0 0 0 0 8 0 0 0 0 0 0 0 0 7 0 0 0 0 0 32 20 0 0 81 9 0 0 39 0 0 0 0 0 0 0 0 1 0 15 0 35 0 0 4 27 0 18 0 0 0 0 0 0 0 0 0 0 22
0 0 1 0 0 0 0 0 0 0 0 0 0 0 2 0 0 0 0 0 0 0 0 0 0 0 0 0 0 0 0 0 0 0 0 0 0 0 0 2 0 0 0 17 0 21 11 0 0 0 0 0 0 0 0 0 0 0 0 93 0 0 53 0 0 0 0 0 11 0 0 0 0 0 0 18 0 0 0 0 0 11 0 0 0 0 0 19 0 0 3 19 0 0 0 0 0 0 0 0 0 0 0 51 0 0 27 0 0 0 0 1 0 0 0 0 32 0 0 5 0 0 0 0 0 0 0 0 0 0 0 11 5 0 0 0 0 0 0 9 0 14 0 0 0 0 0 0 0 0
0 0 0 0 0 0 0 0 0 0 0 0 0 0 0 74 0 0 32 0 0 0 6 0 0 42 0 0 0 0 0 0 0 0 0 0 0 0 0 0 0 0 0 0 0 0 0 0 0 0 0 0 0 63 23 0 10 0 0 0 0 0 0 0 31 0 0 0 0 0 0 18 40 0 0 0 0 0 0 5 0 0 0 40 0 0 0 0 0 0 0 0 0 0 0 0 0 0 0 0 25 0 0 0 0 4 0 0 0 0 0 0 0 0 0 0 0 0 0 0 49 18 49 0 0 0 0 0 0 0 0 22 0 0 0 0 46 13 0 0 0 0 0 0 21 0 0 0 0 80
0 0 0 0 0 0 49 0 0 0 0 0 0 0 0 0 0 0 51 0 0 0 0 0 14 30 10 0 0 0 0 21 0 0 0 0 0 0 0 0 0 4 0 0 0 0 0 0 0 0 0 7 0 0 0 0 0 0 0 0 0 0 0 6 0 0 0 0 0 0 0 0 0 0 0 59 0 0 0 0 0 0 0 0 41 0 0 0 35 0 0 0 0 56 0 0 0 0 0 0 0 0 0 0 0 0 0 0 0 0 0 0 0 0 0 0 0 0 0 13 0 0 0 0 0 0 0 0 0 0 11 0 0 0 0 0 0 0 0 2 0 0 0 0 0 0 0 0 0 0
0 0 21 0 81 0 0 0 0 0 0 0 0 0 2 0 0 0 0 0 0 0 0 0 0 0 0 0 0 0 0 0 27 0 0 0 0 0 5 0 0 0 0 0 3 0 0 0 0 0 0 0 0 0 0 0 35 0 0 0 0 0 0 0 0 0 0 0 0 0 0 8 0 0 0 0 0 0 11 0 0 0 0 0 0 0 0 0 17 0 0 27 0 0 0 0 25 36 0 0 0 0 0 14 0 0 0 0 0 0 0 0 0 0 0 0 3 0 0 0 0 28 0 0 0 43 0 0 0 0 0 0 35 0 0 8 0 0 0 0 0 55 0 0 0 0 0 0 0 0
0 17 32 0 0 83 0 0 0 0 0 0 0 0 27 31 0 0 0 0 0 0 0 52 0 0 0 0 0 0 0 0 0 0 0 0 0 0 0 0 16 0 0 0 0 0 27 79 26 0 5 24 0 0 23 0 0 0 0 56 0 40 0 0 0 0 0 0 0 52 0 38 0 0 0 0 0 0 0 0 0 0 0 0 0 0 19 0 0 0 44 0 0 0 0 0 0 0 0 0 0 0 0 0 0 0 0 0 0 20 0 0 0 0 0 0 0 21 0 0 0 0 0 65 0 4 0 5 0 18 4 0 0 0 16 0 0 0 0 0 78 0 27 0 0 35 0 0 39 61
0 0 0 0 0 0 0 0 32 67 0 0 0 0 0 0 53 11 0 8 2 0 0 0 0 0 33 0 0 0 0 46 0 0 0 0 0 0 0 0 0 28 0 0 0 25 0 0 0 0 0 0 0 0 0 0 0 0 67 0 1 0 34 0 0 8 25 0 0 27 9 0 0 0 0 0 0 0 0 0 0 0 0 0 0 0 0 0 0 29 0 0 0 0 0 0 0 0 0 0 0 0 0 0 89 60 0 0 0 13 0 0 0 0 0 0 0 0 0 0 0 0 0 10 0 0 0 0 0 0 61 0 16 0 15 10 1 0 0 0 0 0 0 0 0 0 0 0 0 0
0 0 0 0 0 0 0 30 0 0 0 0 0 0 0 0 0 0 0 0 0 0 0 0 0 0 0 0 0 0 0 0 3 0 0 1 0 0 0 0 0 0 0 0 0 0 0 0 0 3 0 0 0 0 0 0 0 0 0 0 0 3 10 0 0 5 0 0 33 0 0 0 0 0 0 0 0 0 0 0 0 0 0 0 36 0 0 0 0 0 9 0 0 0 0 0 0 0 0 0 0 0 0 0 0 0 0 0 0 0 0 0 0 39 0 0 0 0 55 0 0 43 0 0 0 0 0 69 0 0 0 0 10 52 0 0 0 0 0 0 0 3 0 0 0 0 0 0 0 0
0 0 0 0 0 0 0 0 0 0 0 0 0 0 0 0 0 0 0 0 0 0 0 0 0 0 0 39 0 0 0 0 0 0 0 0 0 0 0 1 0 0 0 0 0 5 16 0 0 0 25 0 0 0 0 0 0 0 0 0 0 0 0 0 7 0 43 0 0 0 0 0 0 0 0 0 0 0 56 0 0 0 0 0 0 0 0 7 0 0 0 0 55 0 0 0 0 0 0 0 0 0 0 0 0 0 0 0 0 0 0 0 0 0 0 0 0 0 0 0 0 0 0 0 0 20 0 1 53 0 0 0 0 0 0 0 0 0 0 0 0 0 0 0 4 0 0 0 0 0
0 0 0 0 0 0 0 14 0 0 60 0 2 0 35 0 0 0 0 39 7 7 16 0 0 0 66 61 0 0 0 69 0 0 0 0 6 0 0 0 0 0 0 0 0 0 15 0 14 0 0 0 0 0 0 0 77 0 0 0 12 0 0 0 0 0 0 0 5 0 0 0 0 11 15 0 0 0 0 0 0 0 31 0 34 0 6 0 42 0 0 0 0 0 5 0 0 0 0 85 0 44 0 0 70 0 0 0 0 8 0 0 0 0 0 0 0 0 0 0 0 0 0 12 0 0 0 0 0 2 0 0 0 0 18 0 0 0 0 0 0 0 0 0 0 0 0 0 0 0
